266721.0
2486
1 5 6 11 15 19 20 21 22 23 26 28 31 32 33 36 40 41 43 46 48 50 56 58 61 63 65 66 68 70 73 74 75 76 78 79 81 83 84 85 86 87 89 90 91 93 94 96 97 99 100 101 102 103 105 109 110 111 112 113 114 116 118 120 124 125 127 130 133 134 135 136 137 139 140 144 145 146 147 148 150 151 154 155 157 159 160 161 166 168 170 173 174 176 177 179 180 183 184 185 187 189 190 192 195 196 198 